p edge 1957 1862
e 1 2
e 1 3
e 1 4
e 1 5
e 1 6
e 1 7
e 1 8
e 1 9
e 1 10
e 1 11
e 1 12
e 1 13
e 1 14
e 1 15
e 1 16
e 1 17
e 1 18
e 1 19
e 1 20
e 1 21
e 1 22
e 1 23
e 1 24
e 25 26
e 25 27
e 25 28
e 25 29
e 25 30
e 25 31
e 25 32
e 25 33
e 25 34
e 25 35
e 25 36
e 25 37
e 25 38
e 25 39
e 25 40
e 25 41
e 25 42
e 25 43
e 25 44
e 25 45
e 25 46
e 25 47
e 25 48
e 25 49
e 25 50
e 25 51
e 25 52
e 25 53
e 25 54
e 55 56
e 55 57
e 55 58
e 55 59
e 55 60
e 55 61
e 55 62
e 55 63
e 55 64
e 55 65
e 55 66
e 55 67
e 55 68
e 55 69
e 55 70
e 55 71
e 55 72
e 55 73
e 55 74
e 55 75
e 55 76
e 55 77
e 55 78
e 55 79
e 55 80
e 81 82
e 81 83
e 81 84
e 81 85
e 81 86
e 81 87
e 81 88
e 81 89
e 81 90
e 81 91
e 81 92
e 81 93
e 81 94
e 81 95
e 81 96
e 81 97
e 98 99
e 98 100
e 98 101
e 98 102
e 98 103
e 98 104
e 98 105
e 98 106
e 98 107
e 98 108
e 98 109
e 98 110
e 98 111
e 98 112
e 98 113
e 98 114
e 98 115
e 98 116
e 117 118
e 117 119
e 117 120
e 117 121
e 117 122
e 117 123
e 117 124
e 117 125
e 117 126
e 117 127
e 117 128
e 117 129
e 117 130
e 117 131
e 117 132
e 117 133
e 117 134
e 117 135
e 117 136
e 117 137
e 117 138
e 117 139
e 117 140
e 117 141
e 117 142
e 143 144
e 143 145
e 143 146
e 143 147
e 143 148
e 143 149
e 143 150
e 143 151
e 143 152
e 143 153
e 143 154
e 143 155
e 143 156
e 143 157
e 143 158
e 143 159
e 143 160
e 143 161
e 143 162
e 163 164
e 163 165
e 163 166
e 163 167
e 163 168
e 163 169
e 163 170
e 163 171
e 163 172
e 163 173
e 163 174
e 163 175
e 163 176
e 163 177
e 163 178
e 163 179
e 163 180
e 163 181
e 163 182
e 163 183
e 163 184
e 163 185
e 163 186
e 187 188
e 187 189
e 187 190
e 187 191
e 187 192
e 187 193
e 187 194
e 187 195
e 187 196
e 187 197
e 187 198
e 187 199
e 187 200
e 187 201
e 187 202
e 187 203
e 187 204
e 187 205
e 187 206
e 187 207
e 187 208
e 187 209
e 187 210
e 187 211
e 187 212
e 187 213
e 187 214
e 215 216
e 215 217
e 215 218
e 215 219
e 215 220
e 215 221
e 215 222
e 215 223
e 215 224
e 215 225
e 215 226
e 215 227
e 228 229
e 228 230
e 228 231
e 228 232
e 228 233
e 228 234
e 228 235
e 228 236
e 228 237
e 228 238
e 228 239
e 228 240
e 228 241
e 242 243
e 242 244
e 242 245
e 242 246
e 242 247
e 242 248
e 242 249
e 242 250
e 242 251
e 242 252
e 242 253
e 242 254
e 242 255
e 242 256
e 242 257
e 242 258
e 242 259
e 242 260
e 242 261
e 242 262
e 242 263
e 242 264
e 242 265
e 242 266
e 242 267
e 242 268
e 242 269
e 242 270
e 242 271
e 242 272
e 273 274
e 273 275
e 273 276
e 273 277
e 273 278
e 273 279
e 273 280
e 273 281
e 273 282
e 273 283
e 273 284
e 285 286
e 285 287
e 285 288
e 285 289
e 285 290
e 285 291
e 285 292
e 285 293
e 285 294
e 285 295
e 285 296
e 285 297
e 285 298
e 285 299
e 285 300
e 285 301
e 285 302
e 285 303
e 285 304
e 285 305
e 285 306
e 307 308
e 307 309
e 307 310
e 307 311
e 307 312
e 307 313
e 307 314
e 307 315
e 307 316
e 307 317
e 307 318
e 307 319
e 307 320
e 307 321
e 307 322
e 307 323
e 307 324
e 307 325
e 307 326
e 307 327
e 307 328
e 307 329
e 307 330
e 307 331
e 307 332
e 307 333
e 307 334
e 307 335
e 307 336
e 337 338
e 337 339
e 337 340
e 337 341
e 337 342
e 337 343
e 337 344
e 337 345
e 337 346
e 337 347
e 337 348
e 349 350
e 349 351
e 349 352
e 349 353
e 349 354
e 349 355
e 349 356
e 349 357
e 349 358
e 349 359
e 349 360
e 349 361
e 349 362
e 349 363
e 349 364
e 365 366
e 365 367
e 365 368
e 365 369
e 365 370
e 365 371
e 365 372
e 365 373
e 365 374
e 365 375
e 365 376
e 365 377
e 365 378
e 365 379
e 365 380
e 381 382
e 381 383
e 381 384
e 381 385
e 381 386
e 381 387
e 381 388
e 381 389
e 381 390
e 381 391
e 381 392
e 381 393
e 381 394
e 381 395
e 396 397
e 396 398
e 396 399
e 396 400
e 396 401
e 396 402
e 396 403
e 396 404
e 396 405
e 396 406
e 396 407
e 396 408
e 396 409
e 396 410
e 396 411
e 396 412
e 396 413
e 396 414
e 396 415
e 396 416
e 396 417
e 396 418
e 396 419
e 396 420
e 396 421
e 396 422
e 396 423
e 396 424
e 396 425
e 426 427
e 426 428
e 426 429
e 426 430
e 426 431
e 426 432
e 426 433
e 426 434
e 426 435
e 426 436
e 426 437
e 426 438
e 439 440
e 439 441
e 439 442
e 439 443
e 439 444
e 439 445
e 439 446
e 439 447
e 439 448
e 439 449
e 439 450
e 439 451
e 439 452
e 439 453
e 439 454
e 439 455
e 439 456
e 457 458
e 457 459
e 457 460
e 457 461
e 457 462
e 457 463
e 457 464
e 457 465
e 457 466
e 457 467
e 457 468
e 457 469
e 457 470
e 457 471
e 457 472
e 457 473
e 457 474
e 457 475
e 457 476
e 457 477
e 457 478
e 457 479
e 457 480
e 457 481
e 482 483
e 482 484
e 482 485
e 482 486
e 482 487
e 482 488
e 482 489
e 482 490
e 482 491
e 482 492
e 482 493
e 482 494
e 482 495
e 482 496
e 497 498
e 497 499
e 497 500
e 497 501
e 497 502
e 497 503
e 497 504
e 497 505
e 497 506
e 497 507
e 497 508
e 497 509
e 497 510
e 511 512
e 511 513
e 511 514
e 511 515
e 511 516
e 511 517
e 511 518
e 511 519
e 511 520
e 511 521
e 511 522
e 511 523
e 511 524
e 511 525
e 511 526
e 511 527
e 511 528
e 511 529
e 511 530
e 511 531
e 511 532
e 511 533
e 511 534
e 511 535
e 511 536
e 511 537
e 511 538
e 511 539
e 511 540
e 541 542
e 541 543
e 541 544
e 541 545
e 541 546
e 541 547
e 541 548
e 541 549
e 541 550
e 541 551
e 541 552
e 541 553
e 541 554
e 541 555
e 541 556
e 541 557
e 541 558
e 541 559
e 541 560
e 541 561
e 541 562
e 563 564
e 563 565
e 563 566
e 563 567
e 563 568
e 563 569
e 563 570
e 563 571
e 563 572
e 563 573
e 563 574
e 563 575
e 563 576
e 563 577
e 563 578
e 563 579
e 563 580
e 563 581
e 563 582
e 563 583
e 563 584
e 563 585
e 563 586
e 563 587
e 563 588
e 563 589
e 563 590
e 591 592
e 591 593
e 591 594
e 591 595
e 591 596
e 591 597
e 591 598
e 591 599
e 591 600
e 591 601
e 591 602
e 591 603
e 591 604
e 591 605
e 591 606
e 591 607
e 591 608
e 591 609
e 591 610
e 591 611
e 591 612
e 591 613
e 591 614
e 591 615
e 591 616
e 591 617
e 591 618
e 591 619
e 620 621
e 620 622
e 620 623
e 620 624
e 620 625
e 620 626
e 620 627
e 620 628
e 620 629
e 620 630
e 620 631
e 620 632
e 620 633
e 620 634
e 620 635
e 620 636
e 620 637
e 620 638
e 620 639
e 640 641
e 640 642
e 640 643
e 640 644
e 640 645
e 640 646
e 640 647
e 640 648
e 640 649
e 640 650
e 640 651
e 640 652
e 640 653
e 640 654
e 640 655
e 640 656
e 640 657
e 640 658
e 640 659
e 640 660
e 640 661
e 640 662
e 640 663
e 640 664
e 640 665
e 640 666
e 640 667
e 640 668
e 640 669
e 670 671
e 670 672
e 670 673
e 670 674
e 670 675
e 670 676
e 670 677
e 670 678
e 670 679
e 670 680
e 670 681
e 670 682
e 670 683
e 670 684
e 670 685
e 670 686
e 670 687
e 670 688
e 670 689
e 670 690
e 670 691
e 670 692
e 670 693
e 670 694
e 670 695
e 670 696
e 670 697
e 698 699
e 698 700
e 698 701
e 698 702
e 698 703
e 698 704
e 698 705
e 698 706
e 698 707
e 698 708
e 698 709
e 698 710
e 698 711
e 698 712
e 698 713
e 698 714
e 698 715
e 698 716
e 698 717
e 698 718
e 698 719
e 698 720
e 698 721
e 698 722
e 698 723
e 698 724
e 698 725
e 698 726
e 727 728
e 727 729
e 727 730
e 727 731
e 727 732
e 727 733
e 727 734
e 727 735
e 727 736
e 727 737
e 727 738
e 727 739
e 727 740
e 727 741
e 727 742
e 727 743
e 727 744
e 727 745
e 727 746
e 727 747
e 727 748
e 727 749
e 727 750
e 727 751
e 727 752
e 727 753
e 727 754
e 727 755
e 756 757
e 756 758
e 756 759
e 756 760
e 756 761
e 756 762
e 756 763
e 756 764
e 756 765
e 756 766
e 756 767
e 756 768
e 756 769
e 756 770
e 756 771
e 772 773
e 772 774
e 772 775
e 772 776
e 772 777
e 772 778
e 772 779
e 772 780
e 772 781
e 772 782
e 772 783
e 772 784
e 772 785
e 772 786
e 772 787
e 772 788
e 772 789
e 772 790
e 772 791
e 772 792
e 772 793
e 772 794
e 772 795
e 772 796
e 797 798
e 797 799
e 797 800
e 797 801
e 797 802
e 797 803
e 797 804
e 797 805
e 797 806
e 797 807
e 797 808
e 797 809
e 797 810
e 797 811
e 797 812
e 797 813
e 797 814
e 797 815
e 797 816
e 797 817
e 797 818
e 797 819
e 797 820
e 797 821
e 797 822
e 797 823
e 824 825
e 824 826
e 824 827
e 824 828
e 824 829
e 824 830
e 824 831
e 824 832
e 824 833
e 824 834
e 824 835
e 824 836
e 824 837
e 824 838
e 824 839
e 840 841
e 840 842
e 840 843
e 840 844
e 840 845
e 840 846
e 840 847
e 840 848
e 840 849
e 840 850
e 840 851
e 852 853
e 852 854
e 852 855
e 852 856
e 852 857
e 852 858
e 852 859
e 852 860
e 852 861
e 852 862
e 852 863
e 852 864
e 852 865
e 852 866
e 852 867
e 852 868
e 852 869
e 852 870
e 852 871
e 852 872
e 852 873
e 852 874
e 852 875
e 852 876
e 852 877
e 852 878
e 852 879
e 880 881
e 880 882
e 880 883
e 880 884
e 880 885
e 880 886
e 880 887
e 880 888
e 880 889
e 880 890
e 880 891
e 880 892
e 880 893
e 880 894
e 880 895
e 896 897
e 896 898
e 896 899
e 896 900
e 896 901
e 896 902
e 896 903
e 896 904
e 896 905
e 896 906
e 896 907
e 896 908
e 896 909
e 896 910
e 896 911
e 896 912
e 896 913
e 896 914
e 896 915
e 896 916
e 896 917
e 896 918
e 896 919
e 896 920
e 896 921
e 922 923
e 922 924
e 922 925
e 922 926
e 922 927
e 922 928
e 922 929
e 922 930
e 922 931
e 922 932
e 922 933
e 922 934
e 922 935
e 922 936
e 922 937
e 922 938
e 922 939
e 922 940
e 922 941
e 942 943
e 942 944
e 942 945
e 942 946
e 942 947
e 942 948
e 942 949
e 942 950
e 942 951
e 942 952
e 942 953
e 942 954
e 942 955
e 942 956
e 942 957
e 942 958
e 942 959
e 942 960
e 942 961
e 942 962
e 942 963
e 942 964
e 942 965
e 942 966
e 967 968
e 967 969
e 967 970
e 967 971
e 967 972
e 967 973
e 967 974
e 967 975
e 967 976
e 967 977
e 967 978
e 967 979
e 967 980
e 967 981
e 967 982
e 983 984
e 983 985
e 983 986
e 983 987
e 983 988
e 983 989
e 983 990
e 983 991
e 983 992
e 983 993
e 983 994
e 983 995
e 983 996
e 983 997
e 983 998
e 983 999
e 1000 1001
e 1000 1002
e 1000 1003
e 1000 1004
e 1000 1005
e 1000 1006
e 1000 1007
e 1000 1008
e 1000 1009
e 1000 1010
e 1000 1011
e 1000 1012
e 1000 1013
e 1000 1014
e 1000 1015
e 1000 1016
e 1000 1017
e 1000 1018
e 1000 1019
e 1000 1020
e 1000 1021
e 1000 1022
e 1000 1023
e 1000 1024
e 1000 1025
e 1000 1026
e 1000 1027
e 1000 1028
e 1000 1029
e 1030 1031
e 1030 1032
e 1030 1033
e 1030 1034
e 1030 1035
e 1030 1036
e 1030 1037
e 1030 1038
e 1030 1039
e 1030 1040
e 1030 1041
e 1030 1042
e 1030 1043
e 1030 1044
e 1030 1045
e 1030 1046
e 1030 1047
e 1030 1048
e 1030 1049
e 1050 1051
e 1050 1052
e 1050 1053
e 1050 1054
e 1050 1055
e 1050 1056
e 1050 1057
e 1050 1058
e 1050 1059
e 1050 1060
e 1050 1061
e 1050 1062
e 1063 1064
e 1063 1065
e 1063 1066
e 1063 1067
e 1063 1068
e 1063 1069
e 1063 1070
e 1063 1071
e 1063 1072
e 1063 1073
e 1063 1074
e 1063 1075
e 1063 1076
e 1063 1077
e 1063 1078
e 1063 1079
e 1063 1080
e 1063 1081
e 1063 1082
e 1063 1083
e 1063 1084
e 1063 1085
e 1063 1086
e 1063 1087
e 1063 1088
e 1063 1089
e 1063 1090
e 1091 1092
e 1091 1093
e 1091 1094
e 1091 1095
e 1091 1096
e 1091 1097
e 1091 1098
e 1091 1099
e 1091 1100
e 1091 1101
e 1091 1102
e 1103 1104
e 1103 1105
e 1103 1106
e 1103 1107
e 1103 1108
e 1103 1109
e 1103 1110
e 1103 1111
e 1103 1112
e 1103 1113
e 1103 1114
e 1103 1115
e 1116 1117
e 1116 1118
e 1116 1119
e 1116 1120
e 1116 1121
e 1116 1122
e 1116 1123
e 1116 1124
e 1116 1125
e 1116 1126
e 1116 1127
e 1116 1128
e 1129 1130
e 1129 1131
e 1129 1132
e 1129 1133
e 1129 1134
e 1129 1135
e 1129 1136
e 1129 1137
e 1129 1138
e 1129 1139
e 1129 1140
e 1129 1141
e 1129 1142
e 1129 1143
e 1129 1144
e 1129 1145
e 1129 1146
e 1129 1147
e 1129 1148
e 1129 1149
e 1150 1151
e 1150 1152
e 1150 1153
e 1150 1154
e 1150 1155
e 1150 1156
e 1150 1157
e 1150 1158
e 1150 1159
e 1150 1160
e 1150 1161
e 1150 1162
e 1150 1163
e 1150 1164
e 1150 1165
e 1150 1166
e 1150 1167
e 1150 1168
e 1150 1169
e 1150 1170
e 1150 1171
e 1150 1172
e 1150 1173
e 1150 1174
e 1150 1175
e 1150 1176
e 1150 1177
e 1178 1179
e 1178 1180
e 1178 1181
e 1178 1182
e 1178 1183
e 1178 1184
e 1178 1185
e 1178 1186
e 1178 1187
e 1178 1188
e 1178 1189
e 1178 1190
e 1178 1191
e 1192 1193
e 1192 1194
e 1192 1195
e 1192 1196
e 1192 1197
e 1192 1198
e 1192 1199
e 1192 1200
e 1192 1201
e 1192 1202
e 1192 1203
e 1192 1204
e 1192 1205
e 1192 1206
e 1192 1207
e 1192 1208
e 1192 1209
e 1192 1210
e 1192 1211
e 1192 1212
e 1192 1213
e 1192 1214
e 1192 1215
e 1192 1216
e 1192 1217
e 1192 1218
e 1192 1219
e 1192 1220
e 1221 1222
e 1221 1223
e 1221 1224
e 1221 1225
e 1221 1226
e 1221 1227
e 1221 1228
e 1221 1229
e 1221 1230
e 1221 1231
e 1221 1232
e 1221 1233
e 1221 1234
e 1221 1235
e 1221 1236
e 1221 1237
e 1221 1238
e 1221 1239
e 1240 1241
e 1240 1242
e 1240 1243
e 1240 1244
e 1240 1245
e 1240 1246
e 1240 1247
e 1240 1248
e 1240 1249
e 1240 1250
e 1240 1251
e 1240 1252
e 1240 1253
e 1240 1254
e 1240 1255
e 1240 1256
e 1257 1258
e 1257 1259
e 1257 1260
e 1257 1261
e 1257 1262
e 1257 1263
e 1257 1264
e 1257 1265
e 1257 1266
e 1257 1267
e 1257 1268
e 1257 1269
e 1257 1270
e 1257 1271
e 1257 1272
e 1257 1273
e 1274 1275
e 1274 1276
e 1274 1277
e 1274 1278
e 1274 1279
e 1274 1280
e 1274 1281
e 1274 1282
e 1274 1283
e 1274 1284
e 1285 1286
e 1285 1287
e 1285 1288
e 1285 1289
e 1285 1290
e 1285 1291
e 1285 1292
e 1285 1293
e 1285 1294
e 1285 1295
e 1285 1296
e 1285 1297
e 1285 1298
e 1285 1299
e 1285 1300
e 1285 1301
e 1285 1302
e 1303 1304
e 1303 1305
e 1303 1306
e 1303 1307
e 1303 1308
e 1303 1309
e 1303 1310
e 1303 1311
e 1303 1312
e 1303 1313
e 1303 1314
e 1303 1315
e 1303 1316
e 1303 1317
e 1303 1318
e 1303 1319
e 1303 1320
e 1303 1321
e 1303 1322
e 1303 1323
e 1303 1324
e 1303 1325
e 1303 1326
e 1303 1327
e 1303 1328
e 1303 1329
e 1303 1330
e 1331 1332
e 1331 1333
e 1331 1334
e 1331 1335
e 1331 1336
e 1331 1337
e 1331 1338
e 1331 1339
e 1331 1340
e 1331 1341
e 1331 1342
e 1331 1343
e 1331 1344
e 1331 1345
e 1346 1347
e 1346 1348
e 1346 1349
e 1346 1350
e 1346 1351
e 1346 1352
e 1346 1353
e 1346 1354
e 1346 1355
e 1346 1356
e 1357 1358
e 1357 1359
e 1357 1360
e 1357 1361
e 1357 1362
e 1357 1363
e 1357 1364
e 1357 1365
e 1357 1366
e 1357 1367
e 1357 1368
e 1357 1369
e 1357 1370
e 1357 1371
e 1357 1372
e 1357 1373
e 1357 1374
e 1357 1375
e 1357 1376
e 1357 1377
e 1357 1378
e 1357 1379
e 1380 1381
e 1380 1382
e 1380 1383
e 1380 1384
e 1380 1385
e 1380 1386
e 1380 1387
e 1380 1388
e 1380 1389
e 1380 1390
e 1380 1391
e 1380 1392
e 1380 1393
e 1380 1394
e 1380 1395
e 1380 1396
e 1380 1397
e 1398 1399
e 1398 1400
e 1398 1401
e 1398 1402
e 1398 1403
e 1398 1404
e 1398 1405
e 1398 1406
e 1398 1407
e 1398 1408
e 1398 1409
e 1398 1410
e 1398 1411
e 1398 1412
e 1398 1413
e 1398 1414
e 1415 1416
e 1415 1417
e 1415 1418
e 1415 1419
e 1415 1420
e 1415 1421
e 1415 1422
e 1415 1423
e 1415 1424
e 1415 1425
e 1415 1426
e 1427 1428
e 1427 1429
e 1427 1430
e 1427 1431
e 1427 1432
e 1427 1433
e 1427 1434
e 1427 1435
e 1427 1436
e 1427 1437
e 1427 1438
e 1427 1439
e 1427 1440
e 1427 1441
e 1427 1442
e 1427 1443
e 1444 1445
e 1444 1446
e 1444 1447
e 1444 1448
e 1444 1449
e 1444 1450
e 1444 1451
e 1444 1452
e 1444 1453
e 1444 1454
e 1444 1455
e 1444 1456
e 1444 1457
e 1444 1458
e 1444 1459
e 1444 1460
e 1444 1461
e 1462 1463
e 1462 1464
e 1462 1465
e 1462 1466
e 1462 1467
e 1462 1468
e 1462 1469
e 1462 1470
e 1462 1471
e 1462 1472
e 1462 1473
e 1462 1474
e 1462 1475
e 1462 1476
e 1462 1477
e 1462 1478
e 1462 1479
e 1462 1480
e 1462 1481
e 1462 1482
e 1462 1483
e 1462 1484
e 1485 1486
e 1485 1487
e 1485 1488
e 1485 1489
e 1485 1490
e 1485 1491
e 1485 1492
e 1485 1493
e 1485 1494
e 1485 1495
e 1485 1496
e 1485 1497
e 1485 1498
e 1485 1499
e 1485 1500
e 1501 1502
e 1501 1503
e 1501 1504
e 1501 1505
e 1501 1506
e 1501 1507
e 1501 1508
e 1501 1509
e 1501 1510
e 1501 1511
e 1501 1512
e 1501 1513
e 1501 1514
e 1501 1515
e 1501 1516
e 1501 1517
e 1501 1518
e 1501 1519
e 1501 1520
e 1501 1521
e 1501 1522
e 1501 1523
e 1501 1524
e 1501 1525
e 1501 1526
e 1501 1527
e 1501 1528
e 1529 1530
e 1529 1531
e 1529 1532
e 1529 1533
e 1529 1534
e 1529 1535
e 1529 1536
e 1529 1537
e 1529 1538
e 1529 1539
e 1529 1540
e 1529 1541
e 1529 1542
e 1529 1543
e 1529 1544
e 1529 1545
e 1529 1546
e 1529 1547
e 1529 1548
e 1529 1549
e 1529 1550
e 1529 1551
e 1529 1552
e 1529 1553
e 1529 1554
e 1529 1555
e 1556 1557
e 1556 1558
e 1556 1559
e 1556 1560
e 1556 1561
e 1556 1562
e 1556 1563
e 1556 1564
e 1556 1565
e 1556 1566
e 1556 1567
e 1568 1569
e 1568 1570
e 1568 1571
e 1568 1572
e 1568 1573
e 1568 1574
e 1568 1575
e 1568 1576
e 1568 1577
e 1568 1578
e 1568 1579
e 1568 1580
e 1568 1581
e 1568 1582
e 1568 1583
e 1568 1584
e 1568 1585
e 1568 1586
e 1568 1587
e 1568 1588
e 1568 1589
e 1568 1590
e 1568 1591
e 1568 1592
e 1568 1593
e 1568 1594
e 1568 1595
e 1596 1597
e 1596 1598
e 1596 1599
e 1596 1600
e 1596 1601
e 1596 1602
e 1596 1603
e 1596 1604
e 1596 1605
e 1596 1606
e 1596 1607
e 1596 1608
e 1596 1609
e 1596 1610
e 1596 1611
e 1596 1612
e 1596 1613
e 1596 1614
e 1596 1615
e 1616 1617
e 1616 1618
e 1616 1619
e 1616 1620
e 1616 1621
e 1616 1622
e 1616 1623
e 1616 1624
e 1616 1625
e 1616 1626
e 1616 1627
e 1616 1628
e 1616 1629
e 1630 1631
e 1630 1632
e 1630 1633
e 1630 1634
e 1630 1635
e 1630 1636
e 1630 1637
e 1630 1638
e 1630 1639
e 1630 1640
e 1630 1641
e 1630 1642
e 1630 1643
e 1630 1644
e 1630 1645
e 1630 1646
e 1630 1647
e 1630 1648
e 1630 1649
e 1630 1650
e 1630 1651
e 1630 1652
e 1630 1653
e 1654 1655
e 1654 1656
e 1654 1657
e 1654 1658
e 1654 1659
e 1654 1660
e 1654 1661
e 1654 1662
e 1654 1663
e 1654 1664
e 1654 1665
e 1654 1666
e 1654 1667
e 1654 1668
e 1654 1669
e 1654 1670
e 1654 1671
e 1654 1672
e 1654 1673
e 1654 1674
e 1654 1675
e 1654 1676
e 1654 1677
e 1654 1678
e 1654 1679
e 1680 1681
e 1680 1682
e 1680 1683
e 1680 1684
e 1680 1685
e 1680 1686
e 1680 1687
e 1680 1688
e 1680 1689
e 1680 1690
e 1680 1691
e 1680 1692
e 1680 1693
e 1680 1694
e 1695 1696
e 1695 1697
e 1695 1698
e 1695 1699
e 1695 1700
e 1695 1701
e 1695 1702
e 1695 1703
e 1695 1704
e 1695 1705
e 1695 1706
e 1695 1707
e 1695 1708
e 1695 1709
e 1695 1710
e 1695 1711
e 1695 1712
e 1695 1713
e 1695 1714
e 1695 1715
e 1695 1716
e 1695 1717
e 1695 1718
e 1719 1720
e 1719 1721
e 1719 1722
e 1719 1723
e 1719 1724
e 1719 1725
e 1719 1726
e 1719 1727
e 1719 1728
e 1719 1729
e 1730 1731
e 1730 1732
e 1730 1733
e 1730 1734
e 1730 1735
e 1730 1736
e 1730 1737
e 1730 1738
e 1730 1739
e 1730 1740
e 1730 1741
e 1730 1742
e 1743 1744
e 1743 1745
e 1743 1746
e 1743 1747
e 1743 1748
e 1743 1749
e 1743 1750
e 1743 1751
e 1743 1752
e 1743 1753
e 1743 1754
e 1755 1756
e 1755 1757
e 1755 1758
e 1755 1759
e 1755 1760
e 1755 1761
e 1755 1762
e 1755 1763
e 1755 1764
e 1755 1765
e 1755 1766
e 1755 1767
e 1768 1769
e 1768 1770
e 1768 1771
e 1768 1772
e 1768 1773
e 1768 1774
e 1768 1775
e 1768 1776
e 1768 1777
e 1768 1778
e 1768 1779
e 1768 1780
e 1768 1781
e 1768 1782
e 1768 1783
e 1768 1784
e 1768 1785
e 1768 1786
e 1768 1787
e 1768 1788
e 1768 1789
e 1768 1790
e 1768 1791
e 1768 1792
e 1768 1793
e 1768 1794
e 1795 1796
e 1795 1797
e 1795 1798
e 1795 1799
e 1795 1800
e 1795 1801
e 1795 1802
e 1795 1803
e 1795 1804
e 1795 1805
e 1795 1806
e 1795 1807
e 1795 1808
e 1795 1809
e 1795 1810
e 1795 1811
e 1795 1812
e 1813 1814
e 1813 1815
e 1813 1816
e 1813 1817
e 1813 1818
e 1813 1819
e 1813 1820
e 1813 1821
e 1813 1822
e 1813 1823
e 1813 1824
e 1813 1825
e 1813 1826
e 1813 1827
e 1813 1828
e 1813 1829
e 1813 1830
e 1813 1831
e 1813 1832
e 1813 1833
e 1813 1834
e 1813 1835
e 1836 1837
e 1836 1838
e 1836 1839
e 1836 1840
e 1836 1841
e 1836 1842
e 1836 1843
e 1836 1844
e 1836 1845
e 1836 1846
e 1836 1847
e 1836 1848
e 1836 1849
e 1836 1850
e 1836 1851
e 1836 1852
e 1836 1853
e 1836 1854
e 1855 1856
e 1855 1857
e 1855 1858
e 1855 1859
e 1855 1860
e 1855 1861
e 1855 1862
e 1855 1863
e 1855 1864
e 1855 1865
e 1855 1866
e 1855 1867
e 1855 1868
e 1855 1869
e 1855 1870
e 1855 1871
e 1855 1872
e 1855 1873
e 1855 1874
e 1855 1875
e 1855 1876
e 1855 1877
e 1855 1878
e 1855 1879
e 1855 1880
e 1855 1881
e 1855 1882
e 1855 1883
e 1884 1885
e 1884 1886
e 1884 1887
e 1884 1888
e 1884 1889
e 1884 1890
e 1884 1891
e 1884 1892
e 1884 1893
e 1884 1894
e 1884 1895
e 1884 1896
e 1884 1897
e 1884 1898
e 1884 1899
e 1884 1900
e 1884 1901
e 1884 1902
e 1884 1903
e 1884 1904
e 1884 1905
e 1884 1906
e 1907 1908
e 1907 1909
e 1907 1910
e 1907 1911
e 1907 1912
e 1907 1913
e 1907 1914
e 1907 1915
e 1907 1916
e 1907 1917
e 1907 1918
e 1907 1919
e 1907 1920
e 1907 1921
e 1907 1922
e 1907 1923
e 1907 1924
e 1907 1925
e 1907 1926
e 1907 1927
e 1907 1928
e 1907 1929
e 1907 1930
e 1907 1931
e 1907 1932
e 1907 1933
e 1907 1934
e 1907 1935
e 1907 1936
e 1907 1937
e 1938 1939
e 1938 1940
e 1938 1941
e 1938 1942
e 1938 1943
e 1938 1944
e 1938 1945
e 1938 1946
e 1938 1947
e 1938 1948
e 1938 1949
e 1938 1950
e 1938 1951
e 1938 1952
e 1938 1953
e 1938 1954
e 1938 1955
e 1938 1956
e 1938 1957
